language ESSENCE' 1.0

letting C_FunctionND be
        [[0, 0, 0, 0, 0, 0, 0, 0, 0, 0, 0, 0, 0, 0, 0, 0, 0, 0, 0, 0, 0, 0; int(0..21)],
         [1, 0, 0, 0, 0, 0, 0, 0, 0, 0, 0, 0, 0, 0, 0, 0, 0, 0, 0, 0, 0, 0; int(0..21)],
         [1, 0, 0, 0, 0, 0, 0, 0, 0, 0, 0, 0, 0, 0, 0, 0, 0, 0, 0, 0, 0, 0; int(0..21)],
         [1, 0, 0, 0, 0, 0, 0, 0, 0, 0, 0, 0, 0, 0, 0, 0, 0, 0, 0, 0, 0, 0; int(0..21)],
         [1, 0, 0, 0, 0, 0, 0, 0, 0, 0, 0, 0, 0, 0, 0, 0, 0, 0, 0, 0, 0, 0; int(0..21)],
         [1, 0, 0, 0, 0, 0, 0, 0, 0, 0, 0, 0, 0, 0, 0, 0, 0, 0, 0, 0, 0, 0; int(0..21)],
         [1, 0, 0, 0, 0, 0, 0, 0, 0, 0, 0, 0, 0, 0, 0, 0, 0, 0, 0, 0, 0, 0; int(0..21)],
         [1, 0, 0, 0, 0, 0, 0, 0, 0, 0, 0, 0, 0, 0, 0, 0, 0, 0, 0, 0, 0, 0; int(0..21)],
         [1, 0, 0, 0, 0, 0, 0, 0, 0, 0, 0, 0, 0, 0, 0, 0, 0, 0, 0, 0, 0, 0; int(0..21)],
         [1, 0, 0, 0, 0, 0, 0, 0, 0, 0, 0, 0, 0, 0, 0, 0, 0, 0, 0, 0, 0, 0; int(0..21)],
         [1, 0, 0, 0, 0, 0, 0, 0, 0, 0, 0, 0, 0, 0, 0, 0, 0, 0, 0, 0, 0, 0; int(0..21)],
         [0, 1, 1, 0, 0, 0, 0, 0, 0, 0, 0, 0, 0, 0, 0, 0, 0, 0, 0, 0, 0, 0; int(0..21)],
         [0, 1, 0, 1, 1, 1, 1, 1, 1, 1, 1, 0, 0, 0, 0, 0, 0, 0, 0, 0, 0, 0; int(0..21)],
         [0, 0, 1, 1, 0, 0, 0, 0, 0, 0, 0, 0, 0, 0, 0, 0, 0, 0, 0, 0, 0, 0; int(0..21)],
         [0, 0, 1, 0, 1, 0, 0, 0, 0, 0, 0, 0, 0, 0, 0, 0, 0, 0, 0, 0, 0, 0; int(0..21)],
         [0, 0, 1, 0, 0, 1, 0, 0, 0, 0, 0, 0, 0, 0, 0, 0, 0, 0, 0, 0, 0, 0; int(0..21)],
         [0, 0, 1, 0, 0, 0, 1, 0, 0, 0, 0, 0, 0, 0, 0, 0, 0, 0, 0, 0, 0, 0; int(0..21)],
         [0, 0, 1, 0, 0, 0, 0, 1, 0, 0, 0, 0, 0, 0, 0, 0, 0, 0, 0, 0, 0, 0; int(0..21)],
         [0, 0, 1, 0, 0, 0, 0, 0, 1, 0, 0, 0, 0, 0, 0, 0, 0, 0, 0, 0, 0, 0; int(0..21)],
         [0, 0, 1, 0, 0, 0, 0, 0, 0, 1, 0, 0, 0, 0, 0, 0, 0, 0, 0, 0, 0, 0; int(0..21)],
         [0, 0, 1, 0, 0, 0, 0, 0, 0, 0, 1, 0, 0, 0, 0, 0, 0, 0, 0, 0, 0, 0; int(0..21)],
         [0, 0, 0, 0, 0, 0, 0, 0, 0, 0, 0, 1, 1, 1, 1, 1, 1, 1, 1, 1, 1, 0; int(0..21)];
             int(0..21)]
$ Visualisation for C_FunctionND
$ 0 0 0 0 0 0 0 0 0 0 0 0 0 0 0 0 0 0 0 0 0 0
$ 1 0 0 0 0 0 0 0 0 0 0 0 0 0 0 0 0 0 0 0 0 0
$ 1 0 0 0 0 0 0 0 0 0 0 0 0 0 0 0 0 0 0 0 0 0
$ 1 0 0 0 0 0 0 0 0 0 0 0 0 0 0 0 0 0 0 0 0 0
$ 1 0 0 0 0 0 0 0 0 0 0 0 0 0 0 0 0 0 0 0 0 0
$ 1 0 0 0 0 0 0 0 0 0 0 0 0 0 0 0 0 0 0 0 0 0
$ 1 0 0 0 0 0 0 0 0 0 0 0 0 0 0 0 0 0 0 0 0 0
$ 1 0 0 0 0 0 0 0 0 0 0 0 0 0 0 0 0 0 0 0 0 0
$ 1 0 0 0 0 0 0 0 0 0 0 0 0 0 0 0 0 0 0 0 0 0
$ 1 0 0 0 0 0 0 0 0 0 0 0 0 0 0 0 0 0 0 0 0 0
$ 1 0 0 0 0 0 0 0 0 0 0 0 0 0 0 0 0 0 0 0 0 0
$ 0 1 1 0 0 0 0 0 0 0 0 0 0 0 0 0 0 0 0 0 0 0
$ 0 1 0 1 1 1 1 1 1 1 1 0 0 0 0 0 0 0 0 0 0 0
$ 0 0 1 1 0 0 0 0 0 0 0 0 0 0 0 0 0 0 0 0 0 0
$ 0 0 1 0 1 0 0 0 0 0 0 0 0 0 0 0 0 0 0 0 0 0
$ 0 0 1 0 0 1 0 0 0 0 0 0 0 0 0 0 0 0 0 0 0 0
$ 0 0 1 0 0 0 1 0 0 0 0 0 0 0 0 0 0 0 0 0 0 0
$ 0 0 1 0 0 0 0 1 0 0 0 0 0 0 0 0 0 0 0 0 0 0
$ 0 0 1 0 0 0 0 0 1 0 0 0 0 0 0 0 0 0 0 0 0 0
$ 0 0 1 0 0 0 0 0 0 1 0 0 0 0 0 0 0 0 0 0 0 0
$ 0 0 1 0 0 0 0 0 0 0 1 0 0 0 0 0 0 0 0 0 0 0
$ 0 0 0 0 0 0 0 0 0 0 0 1 1 1 1 1 1 1 1 1 1 0

letting J_FunctionND be
        [[0, 1, 2, 3, 4, 5, 6, 7, 8, 9, 10, 11, 12, 13, 14, 15, 16, 17, 18, 19, 20, 21; int(0..21)],
         [1, 1, 11, 12, 12, 12, 12, 12, 12, 12, 12, 11, 12, 21, 21, 21, 21, 21, 21, 21, 21, 21; int(0..21)],
         [2, 11, 2, 13, 14, 15, 16, 17, 18, 19, 20, 11, 21, 13, 14, 15, 16, 17, 18, 19, 20, 21; int(0..21)],
         [3, 12, 13, 3, 12, 12, 12, 12, 12, 12, 12, 21, 12, 13, 21, 21, 21, 21, 21, 21, 21, 21; int(0..21)],
         [4, 12, 14, 12, 4, 12, 12, 12, 12, 12, 12, 21, 12, 21, 14, 21, 21, 21, 21, 21, 21, 21; int(0..21)],
         [5, 12, 15, 12, 12, 5, 12, 12, 12, 12, 12, 21, 12, 21, 21, 15, 21, 21, 21, 21, 21, 21; int(0..21)],
         [6, 12, 16, 12, 12, 12, 6, 12, 12, 12, 12, 21, 12, 21, 21, 21, 16, 21, 21, 21, 21, 21; int(0..21)],
         [7, 12, 17, 12, 12, 12, 12, 7, 12, 12, 12, 21, 12, 21, 21, 21, 21, 17, 21, 21, 21, 21; int(0..21)],
         [8, 12, 18, 12, 12, 12, 12, 12, 8, 12, 12, 21, 12, 21, 21, 21, 21, 21, 18, 21, 21, 21; int(0..21)],
         [9, 12, 19, 12, 12, 12, 12, 12, 12, 9, 12, 21, 12, 21, 21, 21, 21, 21, 21, 19, 21, 21; int(0..21)],
         [10, 12, 20, 12, 12, 12, 12, 12, 12, 12, 10, 21, 12, 21, 21, 21, 21, 21, 21, 21, 20, 21; int(0..21)],
         [11, 11, 11, 21, 21, 21, 21, 21, 21, 21, 21, 11, 21, 21, 21, 21, 21, 21, 21, 21, 21, 21; int(0..21)],
         [12, 12, 21, 12, 12, 12, 12, 12, 12, 12, 12, 21, 12, 21, 21, 21, 21, 21, 21, 21, 21, 21; int(0..21)],
         [13, 21, 13, 13, 21, 21, 21, 21, 21, 21, 21, 21, 21, 13, 21, 21, 21, 21, 21, 21, 21, 21; int(0..21)],
         [14, 21, 14, 21, 14, 21, 21, 21, 21, 21, 21, 21, 21, 21, 14, 21, 21, 21, 21, 21, 21, 21; int(0..21)],
         [15, 21, 15, 21, 21, 15, 21, 21, 21, 21, 21, 21, 21, 21, 21, 15, 21, 21, 21, 21, 21, 21; int(0..21)],
         [16, 21, 16, 21, 21, 21, 16, 21, 21, 21, 21, 21, 21, 21, 21, 21, 16, 21, 21, 21, 21, 21; int(0..21)],
         [17, 21, 17, 21, 21, 21, 21, 17, 21, 21, 21, 21, 21, 21, 21, 21, 21, 17, 21, 21, 21, 21; int(0..21)],
         [18, 21, 18, 21, 21, 21, 21, 21, 18, 21, 21, 21, 21, 21, 21, 21, 21, 21, 18, 21, 21, 21; int(0..21)],
         [19, 21, 19, 21, 21, 21, 21, 21, 21, 19, 21, 21, 21, 21, 21, 21, 21, 21, 21, 19, 21, 21; int(0..21)],
         [20, 21, 20, 21, 21, 21, 21, 21, 21, 21, 20, 21, 21, 21, 21, 21, 21, 21, 21, 21, 20, 21; int(0..21)],
         [21, 21, 21, 21, 21, 21, 21, 21, 21, 21, 21, 21, 21, 21, 21, 21, 21, 21, 21, 21, 21, 21; int(0..21)];
             int(0..21)]
$ Visualisation for J_FunctionND
$  0  1  2  3  4  5  6  7  8  9 10 11 12 13 14 15 16 17 18 19 20 21
$  1  1 11 12 12 12 12 12 12 12 12 11 12 21 21 21 21 21 21 21 21 21
$  2 11  2 13 14 15 16 17 18 19 20 11 21 13 14 15 16 17 18 19 20 21
$  3 12 13  3 12 12 12 12 12 12 12 21 12 13 21 21 21 21 21 21 21 21
$  4 12 14 12  4 12 12 12 12 12 12 21 12 21 14 21 21 21 21 21 21 21
$  5 12 15 12 12  5 12 12 12 12 12 21 12 21 21 15 21 21 21 21 21 21
$  6 12 16 12 12 12  6 12 12 12 12 21 12 21 21 21 16 21 21 21 21 21
$  7 12 17 12 12 12 12  7 12 12 12 21 12 21 21 21 21 17 21 21 21 21
$  8 12 18 12 12 12 12 12  8 12 12 21 12 21 21 21 21 21 18 21 21 21
$  9 12 19 12 12 12 12 12 12  9 12 21 12 21 21 21 21 21 21 19 21 21
$ 10 12 20 12 12 12 12 12 12 12 10 21 12 21 21 21 21 21 21 21 20 21
$ 11 11 11 21 21 21 21 21 21 21 21 11 21 21 21 21 21 21 21 21 21 21
$ 12 12 21 12 12 12 12 12 12 12 12 21 12 21 21 21 21 21 21 21 21 21
$ 13 21 13 13 21 21 21 21 21 21 21 21 21 13 21 21 21 21 21 21 21 21
$ 14 21 14 21 14 21 21 21 21 21 21 21 21 21 14 21 21 21 21 21 21 21
$ 15 21 15 21 21 15 21 21 21 21 21 21 21 21 21 15 21 21 21 21 21 21
$ 16 21 16 21 21 21 16 21 21 21 21 21 21 21 21 21 16 21 21 21 21 21
$ 17 21 17 21 21 21 21 17 21 21 21 21 21 21 21 21 21 17 21 21 21 21
$ 18 21 18 21 21 21 21 21 18 21 21 21 21 21 21 21 21 21 18 21 21 21
$ 19 21 19 21 21 21 21 21 21 19 21 21 21 21 21 21 21 21 21 19 21 21
$ 20 21 20 21 21 21 21 21 21 21 20 21 21 21 21 21 21 21 21 21 20 21
$ 21 21 21 21 21 21 21 21 21 21 21 21 21 21 21 21 21 21 21 21 21 21

letting M_FunctionND be
        [[0, 0, 0, 0, 0, 0, 0, 0, 0, 0, 0, 0, 0, 0, 0, 0, 0, 0, 0, 0, 0, 0; int(0..21)],
         [0, 1, 0, 0, 0, 0, 0, 0, 0, 0, 0, 1, 1, 0, 0, 0, 0, 0, 0, 0, 0, 1; int(0..21)],
         [0, 0, 2, 0, 0, 0, 0, 0, 0, 0, 0, 2, 0, 2, 2, 2, 2, 2, 2, 2, 2, 2; int(0..21)],
         [0, 0, 0, 3, 0, 0, 0, 0, 0, 0, 0, 0, 3, 3, 0, 0, 0, 0, 0, 0, 0, 3; int(0..21)],
         [0, 0, 0, 0, 4, 0, 0, 0, 0, 0, 0, 0, 4, 0, 4, 0, 0, 0, 0, 0, 0, 4; int(0..21)],
         [0, 0, 0, 0, 0, 5, 0, 0, 0, 0, 0, 0, 5, 0, 0, 5, 0, 0, 0, 0, 0, 5; int(0..21)],
         [0, 0, 0, 0, 0, 0, 6, 0, 0, 0, 0, 0, 6, 0, 0, 0, 6, 0, 0, 0, 0, 6; int(0..21)],
         [0, 0, 0, 0, 0, 0, 0, 7, 0, 0, 0, 0, 7, 0, 0, 0, 0, 7, 0, 0, 0, 7; int(0..21)],
         [0, 0, 0, 0, 0, 0, 0, 0, 8, 0, 0, 0, 8, 0, 0, 0, 0, 0, 8, 0, 0, 8; int(0..21)],
         [0, 0, 0, 0, 0, 0, 0, 0, 0, 9, 0, 0, 9, 0, 0, 0, 0, 0, 0, 9, 0, 9; int(0..21)],
         [0, 0, 0, 0, 0, 0, 0, 0, 0, 0, 10, 0, 10, 0, 0, 0, 0, 0, 0, 0, 10, 10; int(0..21)],
         [0, 1, 2, 0, 0, 0, 0, 0, 0, 0, 0, 11, 1, 2, 2, 2, 2, 2, 2, 2, 2, 11; int(0..21)],
         [0, 1, 0, 3, 4, 5, 6, 7, 8, 9, 10, 1, 12, 3, 4, 5, 6, 7, 8, 9, 10, 12; int(0..21)],
         [0, 0, 2, 3, 0, 0, 0, 0, 0, 0, 0, 2, 3, 13, 2, 2, 2, 2, 2, 2, 2, 13; int(0..21)],
         [0, 0, 2, 0, 4, 0, 0, 0, 0, 0, 0, 2, 4, 2, 14, 2, 2, 2, 2, 2, 2, 14; int(0..21)],
         [0, 0, 2, 0, 0, 5, 0, 0, 0, 0, 0, 2, 5, 2, 2, 15, 2, 2, 2, 2, 2, 15; int(0..21)],
         [0, 0, 2, 0, 0, 0, 6, 0, 0, 0, 0, 2, 6, 2, 2, 2, 16, 2, 2, 2, 2, 16; int(0..21)],
         [0, 0, 2, 0, 0, 0, 0, 7, 0, 0, 0, 2, 7, 2, 2, 2, 2, 17, 2, 2, 2, 17; int(0..21)],
         [0, 0, 2, 0, 0, 0, 0, 0, 8, 0, 0, 2, 8, 2, 2, 2, 2, 2, 18, 2, 2, 18; int(0..21)],
         [0, 0, 2, 0, 0, 0, 0, 0, 0, 9, 0, 2, 9, 2, 2, 2, 2, 2, 2, 19, 2, 19; int(0..21)],
         [0, 0, 2, 0, 0, 0, 0, 0, 0, 0, 10, 2, 10, 2, 2, 2, 2, 2, 2, 2, 20, 20; int(0..21)],
         [0, 1, 2, 3, 4, 5, 6, 7, 8, 9, 10, 11, 12, 13, 14, 15, 16, 17, 18, 19, 20, 21; int(0..21)];
             int(0..21)]
$ Visualisation for M_FunctionND
$  0  0  0  0  0  0  0  0  0  0  0  0  0  0  0  0  0  0  0  0  0  0
$  0  1  0  0  0  0  0  0  0  0  0  1  1  0  0  0  0  0  0  0  0  1
$  0  0  2  0  0  0  0  0  0  0  0  2  0  2  2  2  2  2  2  2  2  2
$  0  0  0  3  0  0  0  0  0  0  0  0  3  3  0  0  0  0  0  0  0  3
$  0  0  0  0  4  0  0  0  0  0  0  0  4  0  4  0  0  0  0  0  0  4
$  0  0  0  0  0  5  0  0  0  0  0  0  5  0  0  5  0  0  0  0  0  5
$  0  0  0  0  0  0  6  0  0  0  0  0  6  0  0  0  6  0  0  0  0  6
$  0  0  0  0  0  0  0  7  0  0  0  0  7  0  0  0  0  7  0  0  0  7
$  0  0  0  0  0  0  0  0  8  0  0  0  8  0  0  0  0  0  8  0  0  8
$  0  0  0  0  0  0  0  0  0  9  0  0  9  0  0  0  0  0  0  9  0  9
$  0  0  0  0  0  0  0  0  0  0 10  0 10  0  0  0  0  0  0  0 10 10
$  0  1  2  0  0  0  0  0  0  0  0 11  1  2  2  2  2  2  2  2  2 11
$  0  1  0  3  4  5  6  7  8  9 10  1 12  3  4  5  6  7  8  9 10 12
$  0  0  2  3  0  0  0  0  0  0  0  2  3 13  2  2  2  2  2  2  2 13
$  0  0  2  0  4  0  0  0  0  0  0  2  4  2 14  2  2  2  2  2  2 14
$  0  0  2  0  0  5  0  0  0  0  0  2  5  2  2 15  2  2  2  2  2 15
$  0  0  2  0  0  0  6  0  0  0  0  2  6  2  2  2 16  2  2  2  2 16
$  0  0  2  0  0  0  0  7  0  0  0  2  7  2  2  2  2 17  2  2  2 17
$  0  0  2  0  0  0  0  0  8  0  0  2  8  2  2  2  2  2 18  2  2 18
$  0  0  2  0  0  0  0  0  0  9  0  2  9  2  2  2  2  2  2 19  2 19
$  0  0  2  0  0  0  0  0  0  0 10  2 10  2  2  2  2  2  2  2 20 20
$  0  1  2  3  4  5  6  7  8  9 10 11 12 13 14 15 16 17 18 19 20 21

letting R_Function1D be [0, 1, 1, 1, 1, 1, 1, 1, 1, 1, 1, 2, 2, 2, 2, 2, 2, 2, 2, 2, 2, 3; int(0..21)]
